(declare-fun temp88846_1 () (_ BitVec 64))
(declare-fun temp88846_2 () (_ BitVec 64))
(declare-fun var77740 () (_ BitVec 64))
(declare-fun k!0 () Bool)
(declare-fun ARGNAME_filter_NAMEEND_DIM () (_ BitVec 64))
(declare-fun ARGNAME_data_format_NAMEEND_STRFMT () (_ BitVec 64))
(declare-fun temp88846_3 () (_ BitVec 64))
(declare-fun ARGNAME_out_backprop_NAMEEND_DIM () (_ BitVec 64))
(declare-fun var77770 () (_ BitVec 64))
(declare-fun temp88846_4 () (_ BitVec 64))
(declare-fun temp88846_5 () (_ BitVec 64))
(declare-fun ARGNAME_filter_NAMEEND_DIMSIZE
             ()
             (Array (_ BitVec 64) (_ BitVec 64)))
(declare-fun temp88846_6 () (_ BitVec 64))
(declare-fun temp88846_7 () (_ BitVec 64))
(declare-fun temp88846_8 () (_ BitVec 64))
(declare-fun temp88846_9 () (_ BitVec 64))
(declare-fun temp88846_10 () (_ BitVec 64))
(declare-fun temp88846_11 () (_ BitVec 64))
(declare-fun temp88846_12 () (_ BitVec 64))
(declare-fun temp88846_13 () (_ BitVec 64))
(declare-fun temp88846_14 () (_ BitVec 64))
(declare-fun temp88846_15 () (_ BitVec 64))
(declare-fun temp88846_16 () (_ BitVec 64))
(declare-fun temp88846_17 () (_ BitVec 64))
(declare-fun temp88846_18 () (_ BitVec 64))
(declare-fun var77799 () (_ BitVec 64))
(declare-fun temp88846_19 () (_ BitVec 64))
(declare-fun ARGNAME_out_backprop_NAMEEND_DIMSIZE
             ()
             (Array (_ BitVec 64) (_ BitVec 64)))
(declare-fun temp88846_20 () (_ BitVec 64))
(declare-fun temp88846_21 () (_ BitVec 64))
(declare-fun temp88846_22 () (_ BitVec 64))
(declare-fun temp88846_23 () (_ BitVec 64))
(declare-fun temp88846_24 () (_ BitVec 64))
(declare-fun temp88846_25 () (_ BitVec 64))
(declare-fun temp88846_26 () (_ BitVec 64))
(declare-fun temp88846_27 () (_ BitVec 64))
(declare-fun temp88846_28 () (_ BitVec 64))
(declare-fun temp88846_29 () (_ BitVec 64))
(declare-fun temp88846_30 () (_ BitVec 64))
(declare-fun temp88846_31 () (_ BitVec 64))
(declare-fun temp88846_32 () (_ BitVec 64))
(declare-fun var77832 () (_ BitVec 64))
(declare-fun temp88846_33 () (_ BitVec 64))
(declare-fun temp88846_34 () (_ BitVec 64))
(declare-fun var77833 () (_ BitVec 64))
(declare-fun var77834 () (_ BitVec 64))
(declare-fun temp88846_35 () (_ BitVec 64))
(declare-fun temp88846_36 () (_ BitVec 64))
(declare-fun var275510 () (_ BitVec 64))
(declare-fun temp88846_37 () (_ BitVec 64))
(declare-fun var275528 () (_ BitVec 64))
(declare-fun temp88846_38 () (_ BitVec 64))
(declare-fun temp88846_40 () (_ BitVec 64))
(declare-fun temp88846_39 () (_ BitVec 64))
(declare-fun temp88846_41 () (_ BitVec 64))
(declare-fun var472118 () (_ BitVec 64))
(declare-fun temp88846_42 () (_ BitVec 64))
(declare-fun var472136 () (_ BitVec 64))
(declare-fun temp88846_43 () (_ BitVec 64))
(declare-fun temp88846_45 () (_ BitVec 64))
(declare-fun temp88846_44 () (_ BitVec 64))
(declare-fun temp88846_47 () (_ BitVec 64))
(declare-fun temp88846_46 () (_ BitVec 64))
(declare-fun temp88846_48 () (_ BitVec 64))
(declare-fun var603190 () (_ BitVec 64))
(declare-fun temp88846_49 () (_ BitVec 64))
(declare-fun var603208 () (_ BitVec 64))
(declare-fun temp88846_50 () (_ BitVec 64))
(declare-fun temp88846_52 () (_ BitVec 64))
(declare-fun temp88846_51 () (_ BitVec 64))
(declare-fun temp88846_54 () (_ BitVec 64))
(declare-fun temp88846_53 () (_ BitVec 64))
(declare-fun temp88846_56 () (_ BitVec 64))
(declare-fun temp88846_55 () (_ BitVec 64))
(declare-fun temp88846_57 () (_ BitVec 64))
(declare-fun var795723 () (_ BitVec 64))
(declare-fun var795702 () (_ BitVec 64))
(declare-fun var730134 () (_ BitVec 64))
(declare-fun temp88846_58 () (_ BitVec 64))
(declare-fun temp88846_60 () (_ BitVec 64))
(declare-fun temp88846_59 () (_ BitVec 64))
(declare-fun temp88846_62 () (_ BitVec 64))
(declare-fun temp88846_61 () (_ BitVec 64))
(declare-fun temp88846_64 () (_ BitVec 64))
(declare-fun temp88846_63 () (_ BitVec 64))
(declare-fun temp88846_65 () (_ BitVec 64))
(declare-fun var1057842 () (_ BitVec 64))
(declare-fun temp88846_66 () (_ BitVec 64))
(declare-fun var1057843 () (_ BitVec 64))
(declare-fun var1057844 () (_ BitVec 64))
(declare-fun var1057840 () (_ BitVec 64))
(declare-fun var664540 () (_ BitVec 64))
(declare-fun temp88846_67 () (_ BitVec 64))
(declare-fun var1123378 () (_ BitVec 64))
(declare-fun temp88846_68 () (_ BitVec 64))
(declare-fun var1123379 () (_ BitVec 64))
(declare-fun var1123380 () (_ BitVec 64))
(declare-fun var1123376 () (_ BitVec 64))
(declare-fun var664547 () (_ BitVec 64))
(declare-fun temp88846_69 () (_ BitVec 64))
(declare-fun var1188914 () (_ BitVec 64))
(declare-fun temp88846_70 () (_ BitVec 64))
(declare-fun var1188915 () (_ BitVec 64))
(declare-fun var1188916 () (_ BitVec 64))
(declare-fun var1188912 () (_ BitVec 64))
(declare-fun var664552 () (_ BitVec 64))
(declare-fun var78095 () (_ BitVec 64))
(declare-fun temp88846_71 () (_ BitVec 64))
(declare-fun temp88846_72 () (_ BitVec 64))
(declare-fun var78096 () (_ BitVec 64))
(declare-fun var78179 () (_ BitVec 64))
(assert (or (= ARGNAME_data_format_NAMEEND_STRFMT #x0000000000000000)
    (= ARGNAME_data_format_NAMEEND_STRFMT #x0000000000000001)
    (= ARGNAME_data_format_NAMEEND_STRFMT #x0000000000000002)
    (= ARGNAME_data_format_NAMEEND_STRFMT #x0000000000000003)
    (= ARGNAME_data_format_NAMEEND_STRFMT #x0000000000000004)
    (= ARGNAME_data_format_NAMEEND_STRFMT #x0000000000000005)))
(assert (= temp88846_1 #x0000000000000005))
(assert (= var77740
   (ite (= ARGNAME_filter_NAMEEND_DIM temp88846_1)
        #x0000000000000001
        #x0000000000000000)))
(assert (= temp88846_2 #x0000000000000001))
(assert (= var77740 temp88846_2))
(assert (= temp88846_3 #x0000000000000005))
(assert (= var77770
   (ite (= ARGNAME_out_backprop_NAMEEND_DIM temp88846_3)
        #x0000000000000001
        #x0000000000000000)))
(assert (= temp88846_4 #x0000000000000001))
(assert (= var77770 temp88846_4))
(assert (= temp88846_5 #x0000000000000000))
(assert (= temp88846_6 (select ARGNAME_filter_NAMEEND_DIMSIZE temp88846_5)))
(assert (= temp88846_7 #x0000000000000001))
(assert (= temp88846_8 (select ARGNAME_filter_NAMEEND_DIMSIZE temp88846_7)))
(assert (= temp88846_9 #x0000000000000002))
(assert (= temp88846_10 (select ARGNAME_filter_NAMEEND_DIMSIZE temp88846_9)))
(assert (= temp88846_11 #x0000000000000003))
(assert (= temp88846_12 (select ARGNAME_filter_NAMEEND_DIMSIZE temp88846_11)))
(assert (= temp88846_13 #x0000000000000004))
(assert (= temp88846_14 (select ARGNAME_filter_NAMEEND_DIMSIZE temp88846_13)))
(assert (= temp88846_15 #x0000000000000005))
(assert (= temp88846_16 (select ARGNAME_filter_NAMEEND_DIMSIZE temp88846_15)))
(assert (= temp88846_17 #x0000000000000003))
(assert (= temp88846_18 (select ARGNAME_filter_NAMEEND_DIMSIZE temp88846_17)))
(assert (= var77799 temp88846_18))
(assert (= temp88846_19 #x0000000000000000))
(assert (= temp88846_20 (select ARGNAME_out_backprop_NAMEEND_DIMSIZE temp88846_19)))
(assert (= temp88846_21 #x0000000000000001))
(assert (= temp88846_22 (select ARGNAME_out_backprop_NAMEEND_DIMSIZE temp88846_21)))
(assert (= temp88846_23 #x0000000000000002))
(assert (= temp88846_24 (select ARGNAME_out_backprop_NAMEEND_DIMSIZE temp88846_23)))
(assert (= temp88846_25 #x0000000000000003))
(assert (= temp88846_26 (select ARGNAME_out_backprop_NAMEEND_DIMSIZE temp88846_25)))
(assert (= temp88846_27 #x0000000000000004))
(assert (= temp88846_28 (select ARGNAME_out_backprop_NAMEEND_DIMSIZE temp88846_27)))
(assert (= temp88846_29 #x0000000000000005))
(assert (= temp88846_30 (select ARGNAME_out_backprop_NAMEEND_DIMSIZE temp88846_29)))
(assert (= temp88846_31 #x0000000000000004))
(assert (= temp88846_32 (select ARGNAME_out_backprop_NAMEEND_DIMSIZE temp88846_31)))
(assert (= var77832 temp88846_32))
(assert (= temp88846_33 #x0000000000000004))
(assert (= temp88846_34 (select ARGNAME_filter_NAMEEND_DIMSIZE temp88846_33)))
(assert (= var77833 temp88846_34))
(assert (= var77834 (ite (= var77832 var77833) #x0000000000000001 #x0000000000000000)))
(assert (= temp88846_35 #x0000000000000001))
(assert (= var77834 temp88846_35))
(assert (= temp88846_36 #x0000000000000001))
(assert (= var275510 temp88846_36))
(assert (= temp88846_37 #x0000000000000001))
(assert (= var275528
   (ite (bvslt var275510 temp88846_37) #x0000000000000001 #x0000000000000000)))
(assert (= temp88846_38 #x0000000000000000))
(assert (= var275528 temp88846_38))
(assert (= temp88846_40 #x0000000000000000))
(assert (= temp88846_39 temp88846_40))
(assert (= temp88846_41 #x0000000000000001))
(assert (= var472118 temp88846_41))
(assert (= temp88846_42 #x0000000000000001))
(assert (= var472136
   (ite (bvslt var472118 temp88846_42) #x0000000000000001 #x0000000000000000)))
(assert (= temp88846_43 #x0000000000000000))
(assert (= var472136 temp88846_43))
(assert (= temp88846_45 #x0000000000000000))
(assert (= temp88846_44 temp88846_45))
(assert (= temp88846_47 #x0000000000000000))
(assert (= temp88846_46 temp88846_47))
(assert (= temp88846_48 #x0000000000000001))
(assert (= var603190 temp88846_48))
(assert (= temp88846_49 #x0000000000000001))
(assert (= var603208
   (ite (bvslt var603190 temp88846_49) #x0000000000000001 #x0000000000000000)))
(assert (= temp88846_50 #x0000000000000000))
(assert (= var603208 temp88846_50))
(assert (= temp88846_52 #x00000000000000ff))
(assert (= temp88846_51 temp88846_52))
(assert (= temp88846_54 #x00000000000000ff))
(assert (= temp88846_53 temp88846_54))
(assert (= temp88846_56 #x00000000000000ff))
(assert (= temp88846_55 temp88846_56))
(assert (= temp88846_57 #x0000000000000000))
(assert (= var795723 temp88846_57))
(assert (= var795702 var795723))
(assert (= var730134 var795702))
(assert (= temp88846_58 #x0000000000000000))
(assert (= var730134 temp88846_58))
(assert (= temp88846_60 #x0000000000000000))
(assert (= temp88846_59 temp88846_60))
(assert (= temp88846_62 #x0000000000000000))
(assert (= temp88846_61 temp88846_62))
(assert (= temp88846_64 #x0000000000000000))
(assert (= temp88846_63 temp88846_64))
(assert (= temp88846_65 #x0000000000008000))
(assert (= var1057842 temp88846_65))
(assert (= temp88846_66 #x0000000000000001))
(assert (= var1057843
   (ite (bvslt temp88846_63 temp88846_66) #x0000000000000001 #x0000000000000000)))
(assert (= var1057844 (ite (= var1057843 #x0000000000000001) var1057842 temp88846_63)))
(assert (= var1057840 var1057844))
(assert (= var664540 var1057840))
(assert (= temp88846_67 #x0000000000040000))
(assert (= var1123378 temp88846_67))
(assert (= temp88846_68 #x0000000000000001))
(assert (= var1123379
   (ite (bvslt temp88846_61 temp88846_68) #x0000000000000001 #x0000000000000000)))
(assert (= var1123380 (ite (= var1123379 #x0000000000000001) var1123378 temp88846_61)))
(assert (= var1123376 var1123380))
(assert (= var664547 var1123376))
(assert (= temp88846_69 #x0000000000200000))
(assert (= var1188914 temp88846_69))
(assert (= temp88846_70 #x0000000000000001))
(assert (= var1188915
   (ite (bvslt temp88846_59 temp88846_70) #x0000000000000001 #x0000000000000000)))
(assert (= var1188916 (ite (= var1188915 #x0000000000000001) var1188914 temp88846_59)))
(assert (= var1188912 var1188916))
(assert (= var664552 var1188912))
(assert (= var78095 var664552))
(assert (= temp88846_71 #x0000000000000003))
(assert (= temp88846_72 #xffffffffffffffff))
(assert (= var78179 (bvadd var78096 temp88846_72)))
(model-add temp88846_1 () (_ BitVec 64) #x0000000000000005)
(model-add temp88846_2 () (_ BitVec 64) #x0000000000000001)
(model-add var77740 () (_ BitVec 64) #x0000000000000001)
(model-del k!0)
(model-add ARGNAME_filter_NAMEEND_DIM
           ()
           (_ BitVec 64)
           (ite k!0 #x0000000000000005 (bvnot #x0000000000000005)))


